(set-logic QF_BV)

(declare-const __ESBMC_ptr_obj_start_0 (_ BitVec 64))

(declare-const __ESBMC_ptr_obj_end_0 (_ BitVec 64))

(declare-const __ESBMC_ptr_obj_start_1 (_ BitVec 64))

(declare-const __ESBMC_ptr_obj_end_1 (_ BitVec 64))

(declare-const |smt_conv::__ESBMC_ptr_addr_range_0..start0| (_ BitVec 64))

(declare-const |smt_conv::__ESBMC_ptr_addr_range_0..end0| (_ BitVec 64))

(declare-const |smt_conv::__ESBMC_ptr_addr_range_1..start0| (_ BitVec 64))

(declare-const |smt_conv::__ESBMC_ptr_addr_range_1..end0| (_ BitVec 64))

(declare-const |smt_conv::smt_conv::collate_array_vals::3..start0| (_ BitVec 64))

(declare-const |smt_conv::smt_conv::collate_array_vals::3..end0| (_ BitVec 64))

(declare-const |smt_conv::smt_conv::collate_array_vals::4..start0| (_ BitVec 64))

(declare-const |smt_conv::smt_conv::collate_array_vals::4..end0| (_ BitVec 64))

(declare-const |smt_conv::smt_conv::collate_array_vals::7..start0| (_ BitVec 64))

(declare-const |smt_conv::smt_conv::collate_array_vals::7..end0| (_ BitVec 64))

(declare-const |c:@F@main::$tmp::return_value$___VERIFIER_nondet_int$1?1!0&0#1| (_ BitVec 32))

(declare-const |nondet$symex::nondet55| (_ BitVec 32))

(declare-const |c:benchmark25_linear.i@904@F@main@x?1!0&0#1| (_ BitVec 32))

(declare-const |goto_symex::guard?0!0&0#1| (_ BitVec 1))

(declare-const |goto_symex::guard?0!0&0#2| (_ BitVec 1))

(declare-const |execution_statet::guard_exec?0!0| (_ BitVec 1))

(declare-const |c:benchmark25_linear.i@904@F@main@x?1!0&0#2| (_ BitVec 32))

(declare-const |goto_symex::guard?0!0&0#3| (_ BitVec 1))

(declare-const |c:benchmark25_linear.i@904@F@main@x?1!0&0#3| (_ BitVec 32))

(declare-const |goto_symex::guard?0!0&0#4| (_ BitVec 1))

(declare-const |c:benchmark25_linear.i@904@F@main@x?1!0&0#4| (_ BitVec 32))

(declare-const |goto_symex::guard?0!0&0#5| (_ BitVec 1))

(declare-const |c:benchmark25_linear.i@904@F@main@x?1!0&0#5| (_ BitVec 32))

(declare-const |goto_symex::guard?0!0&0#6| (_ BitVec 1))

(declare-const |c:benchmark25_linear.i@904@F@main@x?1!0&0#6| (_ BitVec 32))

(declare-const |goto_symex::guard?0!0&0#7| (_ BitVec 1))

(declare-const |c:benchmark25_linear.i@904@F@main@x?1!0&0#7| (_ BitVec 32))

(declare-const |goto_symex::guard?0!0&0#8| (_ BitVec 1))

(declare-const |c:benchmark25_linear.i@904@F@main@x?1!0&0#8| (_ BitVec 32))

(declare-const |goto_symex::guard?0!0&0#9| (_ BitVec 1))

(declare-const |c:benchmark25_linear.i@904@F@main@x?1!0&0#9| (_ BitVec 32))

(declare-const |goto_symex::guard?0!0&0#10| (_ BitVec 1))

(declare-const |c:benchmark25_linear.i@904@F@main@x?1!0&0#10| (_ BitVec 32))

(declare-const |goto_symex::guard?0!0&0#11| (_ BitVec 1))

(declare-const |c:benchmark25_linear.i@904@F@main@x?1!0&0#11| (_ BitVec 32))

(declare-const |goto_symex::guard?0!0&0#12| (_ BitVec 1))

(declare-const |c:benchmark25_linear.i@904@F@main@x?1!0&0#12| (_ BitVec 32))

(declare-const |goto_symex::guard?0!0&0#13| (_ BitVec 1))

(declare-const |c:benchmark25_linear.i@904@F@main@x?1!0&0#13| (_ BitVec 32))

(declare-const |goto_symex::guard?0!0&0#14| (_ BitVec 1))

(declare-const |c:benchmark25_linear.i@904@F@main@x?1!0&0#14| (_ BitVec 32))

(declare-const |goto_symex::guard?0!0&0#15| (_ BitVec 1))

(declare-const |c:benchmark25_linear.i@904@F@main@x?1!0&0#15| (_ BitVec 32))

(declare-const |goto_symex::guard?0!0&0#16| (_ BitVec 1))

(declare-const |c:benchmark25_linear.i@904@F@main@x?1!0&0#16| (_ BitVec 32))

(declare-const |goto_symex::guard?0!0&0#17| (_ BitVec 1))

(declare-const |c:benchmark25_linear.i@904@F@main@x?1!0&0#17| (_ BitVec 32))

(declare-const |goto_symex::guard?0!0&0#18| (_ BitVec 1))

(declare-const |c:benchmark25_linear.i@904@F@main@x?1!0&0#18| (_ BitVec 32))

(declare-const |goto_symex::guard?0!0&0#19| (_ BitVec 1))

(declare-const |c:benchmark25_linear.i@904@F@main@x?1!0&0#19| (_ BitVec 32))

(declare-const |goto_symex::guard?0!0&0#20| (_ BitVec 1))

(declare-const |c:benchmark25_linear.i@904@F@main@x?1!0&0#20| (_ BitVec 32))

(declare-const |goto_symex::guard?0!0&0#21| (_ BitVec 1))

(declare-const |c:benchmark25_linear.i@904@F@main@x?1!0&0#21| (_ BitVec 32))

(declare-const |goto_symex::guard?0!0&0#22| (_ BitVec 1))

(declare-const |c:benchmark25_linear.i@904@F@main@x?1!0&0#22| (_ BitVec 32))

(declare-const |goto_symex::guard?0!0&0#23| (_ BitVec 1))

(declare-const |c:benchmark25_linear.i@904@F@main@x?1!0&0#23| (_ BitVec 32))

(declare-const |goto_symex::guard?0!0&0#24| (_ BitVec 1))

(declare-const |c:benchmark25_linear.i@904@F@main@x?1!0&0#24| (_ BitVec 32))

(declare-const |goto_symex::guard?0!0&0#25| (_ BitVec 1))

(declare-const |c:benchmark25_linear.i@904@F@main@x?1!0&0#25| (_ BitVec 32))

(declare-const |goto_symex::guard?0!0&0#26| (_ BitVec 1))

(declare-const |c:benchmark25_linear.i@904@F@main@x?1!0&0#26| (_ BitVec 32))

(declare-const |goto_symex::guard?0!0&0#27| (_ BitVec 1))

(declare-const |c:benchmark25_linear.i@904@F@main@x?1!0&0#27| (_ BitVec 32))

(declare-const |goto_symex::guard?0!0&0#28| (_ BitVec 1))

(declare-const |c:benchmark25_linear.i@904@F@main@x?1!0&0#28| (_ BitVec 32))

(declare-const |goto_symex::guard?0!0&0#29| (_ BitVec 1))

(define-fun $e1 () (_ BitVec 1) 

 (bvand 

  (bvnot |goto_symex::guard?0!0&0#1|) |goto_symex::guard?0!0&0#2|))

(define-fun $e2 () (_ BitVec 32) 

 (bvadd |c:benchmark25_linear.i@904@F@main@x?1!0&0#1| #b00000000000000000000000000000001))

(define-fun $e3 () (_ BitVec 1) 

 (bvand $e1 |goto_symex::guard?0!0&0#3|))

(define-fun $e4 () (_ BitVec 32) 

 (bvadd #b00000000000000000000000000000001 |c:benchmark25_linear.i@904@F@main@x?1!0&0#2|))

(define-fun $e5 () (_ BitVec 1) 

 (bvand $e3 |goto_symex::guard?0!0&0#4|))

(define-fun $e6 () (_ BitVec 32) 

 (bvadd #b00000000000000000000000000000001 |c:benchmark25_linear.i@904@F@main@x?1!0&0#3|))

(define-fun $e7 () (_ BitVec 1) 

 (bvand $e5 |goto_symex::guard?0!0&0#5|))

(define-fun $e8 () (_ BitVec 32) 

 (bvadd #b00000000000000000000000000000001 |c:benchmark25_linear.i@904@F@main@x?1!0&0#4|))

(define-fun $e9 () (_ BitVec 1) 

 (bvand $e7 |goto_symex::guard?0!0&0#6|))

(define-fun $e10 () (_ BitVec 32) 

 (bvadd #b00000000000000000000000000000001 |c:benchmark25_linear.i@904@F@main@x?1!0&0#5|))

(define-fun $e11 () (_ BitVec 1) 

 (bvand $e9 |goto_symex::guard?0!0&0#7|))

(define-fun $e12 () (_ BitVec 32) 

 (bvadd #b00000000000000000000000000000001 |c:benchmark25_linear.i@904@F@main@x?1!0&0#6|))

(define-fun $e13 () (_ BitVec 1) 

 (bvand $e11 |goto_symex::guard?0!0&0#8|))

(define-fun $e14 () (_ BitVec 32) 

 (bvadd #b00000000000000000000000000000001 |c:benchmark25_linear.i@904@F@main@x?1!0&0#7|))

(define-fun $e15 () (_ BitVec 1) 

 (bvand $e13 |goto_symex::guard?0!0&0#9|))

(define-fun $e16 () (_ BitVec 32) 

 (bvadd #b00000000000000000000000000000001 |c:benchmark25_linear.i@904@F@main@x?1!0&0#8|))

(define-fun $e17 () (_ BitVec 1) 

 (bvand $e15 |goto_symex::guard?0!0&0#10|))

(define-fun $e18 () (_ BitVec 32) 

 (bvadd #b00000000000000000000000000000001 |c:benchmark25_linear.i@904@F@main@x?1!0&0#9|))

(define-fun $e19 () (_ BitVec 1) 

 (bvand $e17 |goto_symex::guard?0!0&0#11|))

(define-fun $e20 () (_ BitVec 32) 

 (bvadd #b00000000000000000000000000000001 |c:benchmark25_linear.i@904@F@main@x?1!0&0#10|))

(define-fun $e21 () (_ BitVec 1) 

 (bvand $e19 |goto_symex::guard?0!0&0#12|))

(define-fun $e22 () (_ BitVec 32) 

 (bvadd #b00000000000000000000000000000001 |c:benchmark25_linear.i@904@F@main@x?1!0&0#11|))

(define-fun $e23 () (_ BitVec 1) 

 (bvand $e21 |goto_symex::guard?0!0&0#13|))

(define-fun $e24 () (_ BitVec 32) 

 (bvadd #b00000000000000000000000000000001 |c:benchmark25_linear.i@904@F@main@x?1!0&0#12|))

(define-fun $e25 () (_ BitVec 1) 

 (bvand $e23 |goto_symex::guard?0!0&0#14|))

(define-fun $e26 () (_ BitVec 32) 

 (bvadd #b00000000000000000000000000000001 |c:benchmark25_linear.i@904@F@main@x?1!0&0#13|))

(define-fun $e27 () (_ BitVec 1) 

 (bvand $e25 |goto_symex::guard?0!0&0#15|))

(define-fun $e28 () (_ BitVec 32) 

 (bvadd #b00000000000000000000000000000001 |c:benchmark25_linear.i@904@F@main@x?1!0&0#14|))

(define-fun $e29 () (_ BitVec 1) 

 (bvand $e27 |goto_symex::guard?0!0&0#16|))

(define-fun $e30 () (_ BitVec 32) 

 (bvadd #b00000000000000000000000000000001 |c:benchmark25_linear.i@904@F@main@x?1!0&0#15|))

(define-fun $e31 () (_ BitVec 1) 

 (bvand $e29 |goto_symex::guard?0!0&0#17|))

(define-fun $e32 () (_ BitVec 32) 

 (bvadd #b00000000000000000000000000000001 |c:benchmark25_linear.i@904@F@main@x?1!0&0#16|))

(define-fun $e33 () (_ BitVec 1) 

 (bvand $e31 |goto_symex::guard?0!0&0#18|))

(define-fun $e34 () (_ BitVec 32) 

 (bvadd #b00000000000000000000000000000001 |c:benchmark25_linear.i@904@F@main@x?1!0&0#17|))

(define-fun $e35 () (_ BitVec 1) 

 (bvand $e33 |goto_symex::guard?0!0&0#19|))

(define-fun $e36 () (_ BitVec 32) 

 (bvadd #b00000000000000000000000000000001 |c:benchmark25_linear.i@904@F@main@x?1!0&0#18|))

(define-fun $e37 () (_ BitVec 1) 

 (bvand $e35 |goto_symex::guard?0!0&0#20|))

(define-fun $e38 () (_ BitVec 32) 

 (bvadd #b00000000000000000000000000000001 |c:benchmark25_linear.i@904@F@main@x?1!0&0#19|))

(define-fun $e39 () (_ BitVec 1) 

 (bvand $e37 |goto_symex::guard?0!0&0#21|))

(define-fun $e40 () (_ BitVec 32) 

 (bvadd #b00000000000000000000000000000001 |c:benchmark25_linear.i@904@F@main@x?1!0&0#20|))

(define-fun $e41 () (_ BitVec 1) 

 (bvand $e39 |goto_symex::guard?0!0&0#22|))

(define-fun $e42 () (_ BitVec 32) 

 (bvadd #b00000000000000000000000000000001 |c:benchmark25_linear.i@904@F@main@x?1!0&0#21|))

(define-fun $e43 () (_ BitVec 1) 

 (bvand $e41 |goto_symex::guard?0!0&0#23|))

(define-fun $e44 () (_ BitVec 32) 

 (bvadd #b00000000000000000000000000000001 |c:benchmark25_linear.i@904@F@main@x?1!0&0#22|))

(define-fun $e45 () (_ BitVec 1) 

 (bvand $e43 |goto_symex::guard?0!0&0#24|))

(define-fun $e46 () (_ BitVec 32) 

 (bvadd #b00000000000000000000000000000001 |c:benchmark25_linear.i@904@F@main@x?1!0&0#23|))

(define-fun $e47 () (_ BitVec 1) 

 (bvand $e45 |goto_symex::guard?0!0&0#25|))

(define-fun $e48 () (_ BitVec 32) 

 (bvadd #b00000000000000000000000000000001 |c:benchmark25_linear.i@904@F@main@x?1!0&0#24|))

(define-fun $e49 () (_ BitVec 1) 

 (bvand $e47 |goto_symex::guard?0!0&0#26|))

(define-fun $e50 () (_ BitVec 32) 

 (bvadd #b00000000000000000000000000000001 |c:benchmark25_linear.i@904@F@main@x?1!0&0#25|))

(define-fun $e51 () (_ BitVec 1) 

 (bvand $e49 |goto_symex::guard?0!0&0#27|))

(define-fun $e52 () (_ BitVec 32) 

 (bvadd #b00000000000000000000000000000001 |c:benchmark25_linear.i@904@F@main@x?1!0&0#26|))

(define-fun $e53 () (_ BitVec 1) 

 (bvand $e51 |goto_symex::guard?0!0&0#28|))

(define-fun $e54 () (_ BitVec 32) 

 (bvadd #b00000000000000000000000000000001 |c:benchmark25_linear.i@904@F@main@x?1!0&0#27|))

(define-fun $e55 () (_ BitVec 1) 

 (bvand $e53 |goto_symex::guard?0!0&0#29|))

(assert 

 (= __ESBMC_ptr_obj_start_0 #b0000000000000000000000000000000000000000000000000000000000000000))

(assert 

 (= #b0000000000000000000000000000000000000000000000000000000000000000 __ESBMC_ptr_obj_end_0))

(assert 

 (= __ESBMC_ptr_obj_start_1 #b0000000000000000000000000000000000000000000000000000000000000001))

(assert 

 (= #b1111111111111111111111111111111111111111111111111111111111111111 __ESBMC_ptr_obj_end_1))

(assert 

 (= __ESBMC_ptr_obj_end_0 |smt_conv::__ESBMC_ptr_addr_range_0..end0|))

(assert 

 (= __ESBMC_ptr_obj_start_0 |smt_conv::__ESBMC_ptr_addr_range_0..start0|))

(assert 

 (= __ESBMC_ptr_obj_end_1 |smt_conv::__ESBMC_ptr_addr_range_1..end0|))

(assert 

 (= __ESBMC_ptr_obj_start_1 |smt_conv::__ESBMC_ptr_addr_range_1..start0|))

(assert 

 (= |smt_conv::smt_conv::collate_array_vals::3..end0| |smt_conv::smt_conv::collate_array_vals::4..end0|))

(assert 

 (= |smt_conv::smt_conv::collate_array_vals::3..start0| |smt_conv::smt_conv::collate_array_vals::4..start0|))

(assert 

 (= __ESBMC_ptr_obj_end_0 |smt_conv::smt_conv::collate_array_vals::7..end0|))

(assert 

 (= __ESBMC_ptr_obj_start_0 |smt_conv::smt_conv::collate_array_vals::7..start0|))

(assert 

 (= |c:@F@main::$tmp::return_value$___VERIFIER_nondet_int$1?1!0&0#1| |nondet$symex::nondet55|))

(assert 

 (= |c:@F@main::$tmp::return_value$___VERIFIER_nondet_int$1?1!0&0#1| |c:benchmark25_linear.i@904@F@main@x?1!0&0#1|))

(assert 

 (= |goto_symex::guard?0!0&0#1| 

  (bvnot 

   (ite 

    (bvslt |c:benchmark25_linear.i@904@F@main@x?1!0&0#1| #b00000000000000000000000000000000) #b1 #b0))))

(assert 

 (= |goto_symex::guard?0!0&0#2| 

  (ite 

   (bvslt |c:benchmark25_linear.i@904@F@main@x?1!0&0#1| #b00000000000000000000000000001010) #b1 #b0)))

(assert 

 (= $e2 |c:benchmark25_linear.i@904@F@main@x?1!0&0#2|))

(assert 

 (= |goto_symex::guard?0!0&0#3| 

  (ite 

   (bvslt |c:benchmark25_linear.i@904@F@main@x?1!0&0#2| #b00000000000000000000000000001010) #b1 #b0)))

(assert 

 (= $e4 |c:benchmark25_linear.i@904@F@main@x?1!0&0#3|))

(assert 

 (= |goto_symex::guard?0!0&0#4| 

  (ite 

   (bvslt |c:benchmark25_linear.i@904@F@main@x?1!0&0#3| #b00000000000000000000000000001010) #b1 #b0)))

(assert 

 (= $e6 |c:benchmark25_linear.i@904@F@main@x?1!0&0#4|))

(assert 

 (= |goto_symex::guard?0!0&0#5| 

  (ite 

   (bvslt |c:benchmark25_linear.i@904@F@main@x?1!0&0#4| #b00000000000000000000000000001010) #b1 #b0)))

(assert 

 (= $e8 |c:benchmark25_linear.i@904@F@main@x?1!0&0#5|))

(assert 

 (= |goto_symex::guard?0!0&0#6| 

  (ite 

   (bvslt |c:benchmark25_linear.i@904@F@main@x?1!0&0#5| #b00000000000000000000000000001010) #b1 #b0)))

(assert 

 (= $e10 |c:benchmark25_linear.i@904@F@main@x?1!0&0#6|))

(assert 

 (= |goto_symex::guard?0!0&0#7| 

  (ite 

   (bvslt |c:benchmark25_linear.i@904@F@main@x?1!0&0#6| #b00000000000000000000000000001010) #b1 #b0)))

(assert 

 (= $e12 |c:benchmark25_linear.i@904@F@main@x?1!0&0#7|))

(assert 

 (= |goto_symex::guard?0!0&0#8| 

  (ite 

   (bvslt |c:benchmark25_linear.i@904@F@main@x?1!0&0#7| #b00000000000000000000000000001010) #b1 #b0)))

(assert 

 (= $e14 |c:benchmark25_linear.i@904@F@main@x?1!0&0#8|))

(assert 

 (= |goto_symex::guard?0!0&0#9| 

  (ite 

   (bvslt |c:benchmark25_linear.i@904@F@main@x?1!0&0#8| #b00000000000000000000000000001010) #b1 #b0)))

(assert 

 (= $e16 |c:benchmark25_linear.i@904@F@main@x?1!0&0#9|))

(assert 

 (= |goto_symex::guard?0!0&0#10| 

  (ite 

   (bvslt |c:benchmark25_linear.i@904@F@main@x?1!0&0#9| #b00000000000000000000000000001010) #b1 #b0)))

(assert 

 (= $e18 |c:benchmark25_linear.i@904@F@main@x?1!0&0#10|))

(assert 

 (= |goto_symex::guard?0!0&0#11| 

  (ite 

   (bvslt |c:benchmark25_linear.i@904@F@main@x?1!0&0#10| #b00000000000000000000000000001010) #b1 #b0)))

(assert 

 (= $e20 |c:benchmark25_linear.i@904@F@main@x?1!0&0#11|))

(assert 

 (= |goto_symex::guard?0!0&0#12| 

  (ite 

   (bvslt |c:benchmark25_linear.i@904@F@main@x?1!0&0#11| #b00000000000000000000000000001010) #b1 #b0)))

(assert 

 (= $e22 |c:benchmark25_linear.i@904@F@main@x?1!0&0#12|))

(assert 

 (= |goto_symex::guard?0!0&0#13| 

  (ite 

   (bvslt |c:benchmark25_linear.i@904@F@main@x?1!0&0#12| #b00000000000000000000000000001010) #b1 #b0)))

(assert 

 (= $e24 |c:benchmark25_linear.i@904@F@main@x?1!0&0#13|))

(assert 

 (= |goto_symex::guard?0!0&0#14| 

  (ite 

   (bvslt |c:benchmark25_linear.i@904@F@main@x?1!0&0#13| #b00000000000000000000000000001010) #b1 #b0)))

(assert 

 (= $e26 |c:benchmark25_linear.i@904@F@main@x?1!0&0#14|))

(assert 

 (= |goto_symex::guard?0!0&0#15| 

  (ite 

   (bvslt |c:benchmark25_linear.i@904@F@main@x?1!0&0#14| #b00000000000000000000000000001010) #b1 #b0)))

(assert 

 (= $e28 |c:benchmark25_linear.i@904@F@main@x?1!0&0#15|))

(assert 

 (= |goto_symex::guard?0!0&0#16| 

  (ite 

   (bvslt |c:benchmark25_linear.i@904@F@main@x?1!0&0#15| #b00000000000000000000000000001010) #b1 #b0)))

(assert 

 (= $e30 |c:benchmark25_linear.i@904@F@main@x?1!0&0#16|))

(assert 

 (= |goto_symex::guard?0!0&0#17| 

  (ite 

   (bvslt |c:benchmark25_linear.i@904@F@main@x?1!0&0#16| #b00000000000000000000000000001010) #b1 #b0)))

(assert 

 (= $e32 |c:benchmark25_linear.i@904@F@main@x?1!0&0#17|))

(assert 

 (= |goto_symex::guard?0!0&0#18| 

  (ite 

   (bvslt |c:benchmark25_linear.i@904@F@main@x?1!0&0#17| #b00000000000000000000000000001010) #b1 #b0)))

(assert 

 (= $e34 |c:benchmark25_linear.i@904@F@main@x?1!0&0#18|))

(assert 

 (= |goto_symex::guard?0!0&0#19| 

  (ite 

   (bvslt |c:benchmark25_linear.i@904@F@main@x?1!0&0#18| #b00000000000000000000000000001010) #b1 #b0)))

(assert 

 (= $e36 |c:benchmark25_linear.i@904@F@main@x?1!0&0#19|))

(assert 

 (= |goto_symex::guard?0!0&0#20| 

  (ite 

   (bvslt |c:benchmark25_linear.i@904@F@main@x?1!0&0#19| #b00000000000000000000000000001010) #b1 #b0)))

(assert 

 (= $e38 |c:benchmark25_linear.i@904@F@main@x?1!0&0#20|))

(assert 

 (= |goto_symex::guard?0!0&0#21| 

  (ite 

   (bvslt |c:benchmark25_linear.i@904@F@main@x?1!0&0#20| #b00000000000000000000000000001010) #b1 #b0)))

(assert 

 (= $e40 |c:benchmark25_linear.i@904@F@main@x?1!0&0#21|))

(assert 

 (= |goto_symex::guard?0!0&0#22| 

  (ite 

   (bvslt |c:benchmark25_linear.i@904@F@main@x?1!0&0#21| #b00000000000000000000000000001010) #b1 #b0)))

(assert 

 (= $e42 |c:benchmark25_linear.i@904@F@main@x?1!0&0#22|))

(assert 

 (= |goto_symex::guard?0!0&0#23| 

  (ite 

   (bvslt |c:benchmark25_linear.i@904@F@main@x?1!0&0#22| #b00000000000000000000000000001010) #b1 #b0)))

(assert 

 (= $e44 |c:benchmark25_linear.i@904@F@main@x?1!0&0#23|))

(assert 

 (= |goto_symex::guard?0!0&0#24| 

  (ite 

   (bvslt |c:benchmark25_linear.i@904@F@main@x?1!0&0#23| #b00000000000000000000000000001010) #b1 #b0)))

(assert 

 (= $e46 |c:benchmark25_linear.i@904@F@main@x?1!0&0#24|))

(assert 

 (= |goto_symex::guard?0!0&0#25| 

  (ite 

   (bvslt |c:benchmark25_linear.i@904@F@main@x?1!0&0#24| #b00000000000000000000000000001010) #b1 #b0)))

(assert 

 (= $e48 |c:benchmark25_linear.i@904@F@main@x?1!0&0#25|))

(assert 

 (= |goto_symex::guard?0!0&0#26| 

  (ite 

   (bvslt |c:benchmark25_linear.i@904@F@main@x?1!0&0#25| #b00000000000000000000000000001010) #b1 #b0)))

(assert 

 (= $e50 |c:benchmark25_linear.i@904@F@main@x?1!0&0#26|))

(assert 

 (= |goto_symex::guard?0!0&0#27| 

  (ite 

   (bvslt |c:benchmark25_linear.i@904@F@main@x?1!0&0#26| #b00000000000000000000000000001010) #b1 #b0)))

(assert 

 (= $e52 |c:benchmark25_linear.i@904@F@main@x?1!0&0#27|))

(assert 

 (= |goto_symex::guard?0!0&0#28| 

  (ite 

   (bvslt |c:benchmark25_linear.i@904@F@main@x?1!0&0#27| #b00000000000000000000000000001010) #b1 #b0)))

(assert 

 (= $e54 |c:benchmark25_linear.i@904@F@main@x?1!0&0#28|))

(assert 

 (= |goto_symex::guard?0!0&0#29| 

  (ite 

   (bvslt |c:benchmark25_linear.i@904@F@main@x?1!0&0#28| #b00000000000000000000000000001010) #b1 #b0)))

(assert (= 

 (bvnot 

  (bvand 

   (bvnot 

    (bvand |execution_statet::guard_exec?0!0| $e55)) 

   (bvand 

    (bvnot 

     (bvand |execution_statet::guard_exec?0!0| 

      (bvand $e55 

       (bvand 

        (bvnot 

         ((_ extract 31 31) |c:benchmark25_linear.i@904@F@main@x?1!0&0#28|)) 

        ((_ extract 31 31) 

         (bvadd #b00000000000000000000000000000001 |c:benchmark25_linear.i@904@F@main@x?1!0&0#28|)))))) 

    (bvand 

     (bvnot 

      (bvand |execution_statet::guard_exec?0!0| 

       (bvand $e53 

        (bvand 

         (bvnot 

          ((_ extract 31 31) |c:benchmark25_linear.i@904@F@main@x?1!0&0#27|)) 

         ((_ extract 31 31) $e54))))) 

     (bvand 

      (bvnot 

       (bvand |execution_statet::guard_exec?0!0| 

        (bvand $e51 

         (bvand 

          (bvnot 

           ((_ extract 31 31) |c:benchmark25_linear.i@904@F@main@x?1!0&0#26|)) 

          ((_ extract 31 31) $e52))))) 

      (bvand 

       (bvnot 

        (bvand |execution_statet::guard_exec?0!0| 

         (bvand $e49 

          (bvand 

           (bvnot 

            ((_ extract 31 31) |c:benchmark25_linear.i@904@F@main@x?1!0&0#25|)) 

           ((_ extract 31 31) $e50))))) 

       (bvand 

        (bvnot 

         (bvand |execution_statet::guard_exec?0!0| 

          (bvand $e47 

           (bvand 

            (bvnot 

             ((_ extract 31 31) |c:benchmark25_linear.i@904@F@main@x?1!0&0#24|)) 

            ((_ extract 31 31) $e48))))) 

        (bvand 

         (bvnot 

          (bvand |execution_statet::guard_exec?0!0| 

           (bvand $e45 

            (bvand 

             (bvnot 

              ((_ extract 31 31) |c:benchmark25_linear.i@904@F@main@x?1!0&0#23|)) 

             ((_ extract 31 31) $e46))))) 

         (bvand 

          (bvnot 

           (bvand |execution_statet::guard_exec?0!0| 

            (bvand $e43 

             (bvand 

              (bvnot 

               ((_ extract 31 31) |c:benchmark25_linear.i@904@F@main@x?1!0&0#22|)) 

              ((_ extract 31 31) $e44))))) 

          (bvand 

           (bvnot 

            (bvand |execution_statet::guard_exec?0!0| 

             (bvand $e41 

              (bvand 

               (bvnot 

                ((_ extract 31 31) |c:benchmark25_linear.i@904@F@main@x?1!0&0#21|)) 

               ((_ extract 31 31) $e42))))) 

           (bvand 

            (bvnot 

             (bvand |execution_statet::guard_exec?0!0| 

              (bvand $e39 

               (bvand 

                (bvnot 

                 ((_ extract 31 31) |c:benchmark25_linear.i@904@F@main@x?1!0&0#20|)) 

                ((_ extract 31 31) $e40))))) 

            (bvand 

             (bvnot 

              (bvand |execution_statet::guard_exec?0!0| 

               (bvand $e37 

                (bvand 

                 (bvnot 

                  ((_ extract 31 31) |c:benchmark25_linear.i@904@F@main@x?1!0&0#19|)) 

                 ((_ extract 31 31) $e38))))) 

             (bvand 

              (bvnot 

               (bvand |execution_statet::guard_exec?0!0| 

                (bvand $e35 

                 (bvand 

                  (bvnot 

                   ((_ extract 31 31) |c:benchmark25_linear.i@904@F@main@x?1!0&0#18|)) 

                  ((_ extract 31 31) $e36))))) 

              (bvand 

               (bvnot 

                (bvand |execution_statet::guard_exec?0!0| 

                 (bvand $e33 

                  (bvand 

                   (bvnot 

                    ((_ extract 31 31) |c:benchmark25_linear.i@904@F@main@x?1!0&0#17|)) 

                   ((_ extract 31 31) $e34))))) 

               (bvand 

                (bvnot 

                 (bvand |execution_statet::guard_exec?0!0| 

                  (bvand $e31 

                   (bvand 

                    (bvnot 

                     ((_ extract 31 31) |c:benchmark25_linear.i@904@F@main@x?1!0&0#16|)) 

                    ((_ extract 31 31) $e32))))) 

                (bvand 

                 (bvnot 

                  (bvand |execution_statet::guard_exec?0!0| 

                   (bvand $e29 

                    (bvand 

                     (bvnot 

                      ((_ extract 31 31) |c:benchmark25_linear.i@904@F@main@x?1!0&0#15|)) 

                     ((_ extract 31 31) $e30))))) 

                 (bvand 

                  (bvnot 

                   (bvand |execution_statet::guard_exec?0!0| 

                    (bvand $e27 

                     (bvand 

                      (bvnot 

                       ((_ extract 31 31) |c:benchmark25_linear.i@904@F@main@x?1!0&0#14|)) 

                      ((_ extract 31 31) $e28))))) 

                  (bvand 

                   (bvnot 

                    (bvand |execution_statet::guard_exec?0!0| 

                     (bvand $e25 

                      (bvand 

                       (bvnot 

                        ((_ extract 31 31) |c:benchmark25_linear.i@904@F@main@x?1!0&0#13|)) 

                       ((_ extract 31 31) $e26))))) 

                   (bvand 

                    (bvnot 

                     (bvand |execution_statet::guard_exec?0!0| 

                      (bvand $e23 

                       (bvand 

                        (bvnot 

                         ((_ extract 31 31) |c:benchmark25_linear.i@904@F@main@x?1!0&0#12|)) 

                        ((_ extract 31 31) $e24))))) 

                    (bvand 

                     (bvnot 

                      (bvand |execution_statet::guard_exec?0!0| 

                       (bvand $e21 

                        (bvand 

                         (bvnot 

                          ((_ extract 31 31) |c:benchmark25_linear.i@904@F@main@x?1!0&0#11|)) 

                         ((_ extract 31 31) $e22))))) 

                     (bvand 

                      (bvnot 

                       (bvand |execution_statet::guard_exec?0!0| 

                        (bvand $e19 

                         (bvand 

                          (bvnot 

                           ((_ extract 31 31) |c:benchmark25_linear.i@904@F@main@x?1!0&0#10|)) 

                          ((_ extract 31 31) $e20))))) 

                      (bvand 

                       (bvnot 

                        (bvand |execution_statet::guard_exec?0!0| 

                         (bvand $e17 

                          (bvand 

                           (bvnot 

                            ((_ extract 31 31) |c:benchmark25_linear.i@904@F@main@x?1!0&0#9|)) 

                           ((_ extract 31 31) $e18))))) 

                       (bvand 

                        (bvnot 

                         (bvand |execution_statet::guard_exec?0!0| 

                          (bvand $e15 

                           (bvand 

                            (bvnot 

                             ((_ extract 31 31) |c:benchmark25_linear.i@904@F@main@x?1!0&0#8|)) 

                            ((_ extract 31 31) $e16))))) 

                        (bvand 

                         (bvnot 

                          (bvand |execution_statet::guard_exec?0!0| 

                           (bvand $e13 

                            (bvand 

                             (bvnot 

                              ((_ extract 31 31) |c:benchmark25_linear.i@904@F@main@x?1!0&0#7|)) 

                             ((_ extract 31 31) $e14))))) 

                         (bvand 

                          (bvnot 

                           (bvand |execution_statet::guard_exec?0!0| 

                            (bvand $e11 

                             (bvand 

                              (bvnot 

                               ((_ extract 31 31) |c:benchmark25_linear.i@904@F@main@x?1!0&0#6|)) 

                              ((_ extract 31 31) $e12))))) 

                          (bvand 

                           (bvnot 

                            (bvand |execution_statet::guard_exec?0!0| 

                             (bvand $e9 

                              (bvand 

                               (bvnot 

                                ((_ extract 31 31) |c:benchmark25_linear.i@904@F@main@x?1!0&0#5|)) 

                               ((_ extract 31 31) $e10))))) 

                           (bvand 

                            (bvnot 

                             (bvand |execution_statet::guard_exec?0!0| 

                              (bvand $e7 

                               (bvand 

                                (bvnot 

                                 ((_ extract 31 31) |c:benchmark25_linear.i@904@F@main@x?1!0&0#4|)) 

                                ((_ extract 31 31) $e8))))) 

                            (bvand 

                             (bvnot 

                              (bvand |execution_statet::guard_exec?0!0| 

                               (bvand $e5 

                                (bvand 

                                 (bvnot 

                                  ((_ extract 31 31) |c:benchmark25_linear.i@904@F@main@x?1!0&0#3|)) 

                                 ((_ extract 31 31) $e6))))) 

                             (bvand 

                              (bvnot 

                               (bvand |execution_statet::guard_exec?0!0| 

                                (bvand $e1 

                                 (bvand 

                                  (bvnot 

                                   ((_ extract 31 31) |c:benchmark25_linear.i@904@F@main@x?1!0&0#1|)) 

                                  ((_ extract 31 31) $e2))))) 

                              (bvnot 

                               (bvand |execution_statet::guard_exec?0!0| 

                                (bvand $e3 

                                 (bvand 

                                  (bvnot 

                                   ((_ extract 31 31) |c:benchmark25_linear.i@904@F@main@x?1!0&0#2|)) 

                                  ((_ extract 31 31) $e4)))))))))))))))))))))))))))))))))) #b1))

(check-sat)

(exit)
